4 
5  16 38 58 
6  12 19 27 34 42 50 56 
7  05 12 20 26 32 40 47 55 
8  02 10 17 25 32 40 47 55 
9  02 10 17 25 32 40 47 55 
10  02 10 17 25 32 40 47 55 
11  02 10 17 25 32 40 47 55 
12  02 10 17 25 32 40 47 55 
13  02 10 17 26 33 41 48 56 
14  03 11 18 26 33 41 48 56 
15  03 11 18 26 32 41 48 56 
16  03 11 18 26 32 41 48 56 
17  03 11 18 26 33 41 48 56 
18  03 11 18 26 33 41 48 56 
19  04 11 18 25 32 40 47 55 
20  02 10 17 25 32 42 57 
21  12 27 42 57 
22  12 27 39 52 
23  07 22 
0 
